@relation Phishing_Legitimate_URLs

@attribute having_IPh_Address {-1,1}
@attribute URL_Length {1,0,-1}
@attribute Shortining_Service {1,-1}
@attribute having_At_Symbol {1,-1}
@attribute double_slash_redirecting {-1,1}
@attribute Prefix_Suffix {-1,1}
@attribute having_Sub_Domain {-1,0,1}
@attribute SSLfinal_State {-1,1,0}
@attribute Domain_registeration_length {-1,1}
@attribute Favicon {1,-1}
@attribute port {1,-1}
@attribute HTTPS_token {-1,1}
@attribute Result {-1,1}

@data
-1,1,1,1,-1,-1,-1,-1,-1,1,1,-1,-1
1,1,1,1,1,-1,0,1,-1,1,1,-1,1
